19 90 45 20 62 94 57 56 73 1 49 54 48 8 68 24 41 15 6 38 26 12 60 99 79 13 97 32 5 72 98 28 16 9 88 70 46 81 78 93 55 85 0 18 92 61 42 65 63 86 3 44 75 71 66 27 47 53 37 43 23 52 80 74 35 25 30 31 36 96 10 89 91 84 69 58 17 11 82 2 29 22 87 4 67 7 34 33 14 64 76 95 39 21 50 77 51 40 83 59